;; solver : CVC5
;; version : CVC5 version 1.0.1
;; option : --check-models --produce-models --strings-deq-ext
;; Generated Bug Type : Crash Bug (ex1_bug/cvc5_crash_bug_3.smt2)
(set-logic QF_SLIA)
(declare-fun s () String)
(assert (and (and (and (and (and (and (and (and (and (and (and (and (and (and (and (and (and (and (and (and (and (and (and (and (and (and (and (and (and (and (and (not (not (not (= (ite (not (= (str.at s 3) (str.at s 4))) 1 0) 0)))) (not (= (ite (not (= (str.at s 4) (str.at s 7))) 1 0) 0))) (not (= (ite (not (= (str.at s 4) (str.at s 6))) 1 0) 0))) (not (= (ite (not (= (str.at s 6) (str.at s 7))) 1 0) 0))) (not (= (ite (<= (str.len s) 8) 1 0) 0))) (not (= (ite (= (str.len s) 8) 1 0) 0))) (not (not (= (ite (<= (str.len s) 7) 1 0) 0)))) (not (not (= (ite (= (str.len s) 7) 1 0) 0)))) (not (not (= (ite (<= (str.len s) 6) 1 0) 0)))) (not (not (= (ite (= (str.len s) 6) 1 0) 0)))) (not (not (= (ite (not (= (str.at s 4) (str.at s 5))) 1 0) 0)))) (not (= (ite (not (= (str.at s 5) (str.at s 7))) 1 0) 0))) (not (= (ite (not (= (str.at s 5) (str.at s 6))) 1 0) 0))) (not (= (ite (not (= (str.at s 6) (str.at s 7))) 1 0) 0))) (not (= (ite (<= (str.len s) 8) 1 0) 0))) (not (= (ite (= (str.len s) 8) 1 0) 0))) (not (not (= (ite (<= (str.len s) 7) 1 0) 0)))) (not (not (= (ite (= (str.len s) 7) 1 0) 0)))) (not (not (= (ite (<= (str.len s) 6) 1 0) 0)))) (not (not (= (ite (= (str.len s) 6) 1 0) 0)))) (not (not (= (ite (<= (str.len s) 5) 1 0) 0)))) (not (not (= (ite (= (str.len s) 5) 1 0) 0)))) (not (not (= (ite (<= (str.len s) 4) 1 0) 0)))) (not (not (= (ite (= (str.len s) 4) 1 0) 0)))) (not (not (= (ite (<= (str.len s) 3) 1 0) 0)))) (not (not (= (ite (= (str.len s) 3) 1 0) 0)))) (not (not (= (ite (<= (str.len s) 2) 1 0) 0)))) (not (not (= (ite (= (str.len s) 2) 1 0) 0)))) (not (not (= (ite (<= (str.len s) 1) 1 0) 0)))) (not (not (= (ite (= (str.len s) 1) 1 0) 0)))) (not (not (= (ite (<= (str.len s) 0) 1 0) 0)))) (not (not (= (ite (= (str.len s) 0) 1 0) 0)))))
(check-sat)
(get-model)
